
Gurobi 9.0.3 (win64) logging started Sat Feb  5 17:52:55 2022

Changed value of parameter LogFile to logs\CRVRP_5-2-7-100_4_4.LOG
   Prev: logs\CRVRP_5-2-7-100_4_3.LOG  Default: 
Changed value of parameter Seed to 397996463
   Prev: 1588488599  Min: 0  Max: 2000000000  Default: 0
Parameter Threads unchanged
   Value: 2  Min: 0  Max: 1024  Default: 0
Parameter TimeLimit unchanged
   Value: 60.0  Min: 0.0  Max: inf  Default: inf
Parameter Symmetry unchanged
   Value: 2  Min: -1  Max: 2  Default: -1
Parameter Cuts unchanged
   Value: 2  Min: -1  Max: 3  Default: -1
Parameter PreDepRow unchanged
   Value: 1  Min: -1  Max: 1  Default: -1
Parameter ScaleFlag unchanged
   Value: 1  Min: -1  Max: 3  Default: -1
Parameter NormAdjust unchanged
   Value: 0  Min: -1  Max: 3  Default: -1
Gurobi Optimizer version 9.0.3 build v9.0.3rc0 (win64)
Optimize a model with 1001 rows, 810 columns and 4006 nonzeros
Model fingerprint: 0x10dd05f9
Variable types: 32 continuous, 778 integer (522 binary)
Coefficient statistics:
  Matrix range     [1e+00, 1e+06]
  Objective range  [1e+00, 1e+00]
  Bounds range     [1e+00, 1e+04]
  RHS range        [1e+00, 1e+06]
Presolve removed 616 rows and 515 columns
Presolve time: 0.02s
Presolved: 385 rows, 295 columns, 2069 nonzeros
Variable types: 15 continuous, 280 integer (230 binary)

Root relaxation: objective 3.372064e+02, 263 iterations, 0.01 seconds

    Nodes    |    Current Node    |     Objective Bounds      |     Work
 Expl Unexpl |  Obj  Depth IntInf | Incumbent    BestBd   Gap | It/Node Time

     0     0  337.20636    0   48          -  337.20636      -     -    0s
H    0     0                    1188.1499044  337.20636  71.6%     -    0s
     0     0  361.21737    0   51 1188.14990  361.21737  69.6%     -    0s
H    0     0                     740.5427186  361.21737  51.2%     -    0s
H    0     0                     723.5685090  361.21737  50.1%     -    0s
     0     0  380.23504    0   45  723.56851  380.23504  47.5%     -    0s
H    0     0                     710.8464720  380.23504  46.5%     -    0s
     0     0  384.05672    0   51  710.84647  384.05672  46.0%     -    0s
     0     0  385.04502    0   52  710.84647  385.04502  45.8%     -    0s
     0     0  385.07061    0   51  710.84647  385.07061  45.8%     -    0s
     0     0  389.00000    0   48  710.84647  389.00000  45.3%     -    0s
     0     0  389.01810    0   47  710.84647  389.01810  45.3%     -    0s
     0     0  392.50204    0   49  710.84647  392.50204  44.8%     -    0s
     0     0  392.80209    0   40  710.84647  392.80209  44.7%     -    0s
     0     0  392.86611    0   40  710.84647  392.86611  44.7%     -    0s
     0     0  392.86611    0   45  710.84647  392.86611  44.7%     -    0s
     0     0  392.86611    0   40  710.84647  392.86611  44.7%     -    0s
H    0     0                     680.8179782  392.86611  42.3%     -    0s
H    0     0                     663.1499044  392.86611  40.8%     -    0s
     0     0  392.93075    0   58  663.14990  392.93075  40.7%     -    0s
     0     0  392.93075    0   58  663.14990  392.93075  40.7%     -    0s
H    0     2                     590.1465163  392.93075  33.4%     -    0s
     0     2  392.93075    0   55  590.14652  392.93075  33.4%     -    0s
H   32    36                     565.8100122  399.13184  29.5%  32.5    0s
H  117    92                     530.5376709  402.50071  24.1%  19.7    0s
*  487   111              17     506.5764154  449.29157  11.3%  15.6    1s
*  685   119              22     482.5327507  473.96630  1.78%  13.7    1s
*  692   119              14     473.9663032  473.96630  0.00%  13.6    1s

Cutting planes:
  Gomory: 10
  Cover: 2
  Implied bound: 10
  Clique: 4
  MIR: 11
  Flow cover: 63
  Zero half: 4
  RLT: 81
  Relax-and-lift: 19

Explored 720 nodes (10487 simplex iterations) in 1.14 seconds
Thread count was 2 (of 8 available processors)

Solution count 10: 473.966 482.533 506.576 ... 723.569

Optimal solution found (tolerance 1.00e-04)
Best objective 4.739663032250e+02, best bound 4.739663032250e+02, gap 0.0000%
Discarded solution information
